100
128
4
24
19
16
11
13
4
16
23
2
15
7
12
1
19
5
16
6
15
9
4
11
6
2
6
33
17
37
4
2
2
4
2
2
12
23
3
29
9
1
10
28
4
3
51
4
51
8
43
13
2
59
17
51
2
15
1
39
16
52
46
47
13
45
2
48
41
1
55
8
50
1
53
9
9
61
9
2
2
57
56
53
7
1
7
50
5
52
55
21
25
30
41
39
41
7
64
36
64
46